(benchmark gametime
:status unknown
:logic QF_AUFBV
:extrafuns ((gtAGG__rtDWork  BitVec[32]))
:extrafuns ((gtINDEX47  BitVec[32]))
:extrafuns ((gtINDEX46  BitVec[32]))
:extrafuns ((gtINDEX45  BitVec[32]))
:extrafuns ((gtINDEX44  BitVec[32]))
:extrafuns ((gtINDEX43  BitVec[32]))
:extrafuns ((gtINDEX42  BitVec[32]))
:extrafuns ((gtINDEX41  BitVec[32]))
:extrafuns ((gtINDEX39  BitVec[32]))
:extrafuns ((gtFIELD__bitsForTID0__gtAGG____anonstruct_D_Work_4  Array[32:32]))
:extrafuns ((gtINDEX40  BitVec[32]))
:extrafuns ((gtINDEX37  BitVec[32]))
:extrafuns ((gtINDEX38  BitVec[32]))
:extrafuns ((gtINDEX35  BitVec[32]))
:extrafuns ((gtINDEX36  BitVec[32]))
:extrafuns ((gtINDEX33  BitVec[32]))
:extrafuns ((gtINDEX34  BitVec[32]))
:extrafuns ((gtINDEX31  BitVec[32]))
:extrafuns ((gtINDEX32  BitVec[32]))
:extrafuns ((gtINDEX29  BitVec[32]))
:extrafuns ((gtINDEX30  BitVec[32]))
:extrafuns ((gtINDEX27  BitVec[32]))
:extrafuns ((gtINDEX28  BitVec[32]))
:extrafuns ((gtINDEX26  BitVec[32]))
:extrafuns ((gtINDEX25  BitVec[32]))
:extrafuns ((gtINDEX24  BitVec[32]))
:extrafuns ((gtINDEX23  BitVec[32]))
:extrafuns ((gtINDEX22  BitVec[32]))
:extrafuns ((gtINDEX21  BitVec[32]))
:extrafuns ((gtINDEX19  BitVec[32]))
:extrafuns ((gtINDEX20  BitVec[32]))
:extrafuns ((gtINDEX17  BitVec[32]))
:extrafuns ((gtINDEX18  BitVec[32]))
:extrafuns ((gtINDEX15  BitVec[32]))
:extrafuns ((gtINDEX16  BitVec[32]))
:extrafuns ((gtINDEX14  BitVec[32]))
:extrafuns ((gtINDEX13  BitVec[32]))
:extrafuns ((gtINDEX12  BitVec[32]))
:extrafuns ((gtINDEX11  BitVec[32]))
:extrafuns ((gtINDEX10  BitVec[32]))
:extrafuns ((gtINDEX8  BitVec[32]))
:extrafuns ((gtINDEX9  BitVec[32]))
:extrafuns ((gtINDEX7  BitVec[32]))
:extrafuns ((gtINDEX6  BitVec[32]))
:extrafuns ((gtINDEX4  BitVec[32]))
:extrafuns ((gtINDEX5  BitVec[32]))
:extrafuns ((gtINDEX2  BitVec[32]))
:extrafuns ((gtINDEX3  BitVec[32]))
:extrafuns ((gtINDEX0  BitVec[32]))
:extrafuns ((gtINDEX1  BitVec[32]))
:extrafuns ((gtFIELD__sh_rst__gtAGG____anonstruct_D_Work_4  Array[32:32]))
:extrafuns ((gtFIELD__sent__gtAGG____anonstruct_D_Work_4  Array[32:32]))
:extrafuns ((gtFIELD__is_Eng__gtAGG____anonstruct_bitsForTID0_5  Array[32:1]))
:extrafuns ((gtFIELD__is_active_Eng__gtAGG____anonstruct_bitsForTID0_5  Array[32:1]))
:extrafuns ((gtFIELD__is_active_PURI__gtAGG____anonstruct_bitsForTID0_5  Array[32:1]))
:extrafuns ((sfEvent_  BitVec[32]))
:extrafuns ((gtFIELD__is_PVRP__gtAGG____anonstruct_bitsForTID0_5  Array[32:2]))
:extrafuns ((gtFIELD__is_active_PVRP__gtAGG____anonstruct_bitsForTID0_5  Array[32:1]))
:extrafuns ((gtFIELD__is_active_PPVARP__gtAGG____anonstruct_bitsForTID0_5  Array[32:1]))
:extrafuns ((gtFIELD__is_PLRI__gtAGG____anonstruct_bitsForTID0_5  Array[32:2]))
:extrafuns ((gtFIELD__is_PLRI__gtAGG____anonstruct_bitsForTID0_5_1_  Array[32:2]))
:extrafuns ((gtFIELD__AVId__gtAGG____anonstruct_D_Work_4  Array[32:32]))
:extrafuns ((gtFIELD__LRId__gtAGG____anonstruct_D_Work_4  Array[32:32]))
:extrafuns ((gtFIELD__n_t_n__gtAGG____anonstruct_D_Work_4  Array[32:32]))
:extrafuns ((gtFIELD__temporalCounter_i2__gtAGG____anonstruct_D_Work_4  Array[32:32]))
:extrafuns ((gtFIELD__comm__gtAGG____anonstruct_D_Work_4  Array[32:32]))
:extrafuns ((gtFIELD__is_active_PLRI__gtAGG____anonstruct_bitsForTID0_5  Array[32:1]))
:extrafuns ((gtFIELD__URIex__gtAGG____anonstruct_bitsForTID0_5  Array[32:1]))
:extrafuns ((gtFIELD__n_t__gtAGG____anonstruct_D_Work_4  Array[32:32]))
:extrafuns ((gtFIELD__temporalCounter_i1__gtAGG____anonstruct_D_Work_4  Array[32:32]))
:extrafuns ((gtFIELD__is_PAVI__gtAGG____anonstruct_bitsForTID0_5  Array[32:3]))
:extrafuns ((gtFIELD__is_active_PAVI__gtAGG____anonstruct_bitsForTID0_5  Array[32:1]))
:extrapreds ((constraint83 ))
:extrapreds ((constraint82 ))
:extrapreds ((constraint81 ))
:extrapreds ((constraint80 ))
:extrapreds ((constraint79 ))
:extrapreds ((constraint78 ))
:extrapreds ((constraint77 ))
:extrapreds ((constraint76 ))
:extrapreds ((constraint75 ))
:extrapreds ((constraint74 ))
:extrapreds ((constraint73 ))
:extrapreds ((constraint72 ))
:extrapreds ((constraint71 ))
:extrapreds ((constraint70 ))
:extrapreds ((constraint69 ))
:extrapreds ((constraint68 ))
:extrapreds ((constraint67 ))
:extrapreds ((constraint66 ))
:extrapreds ((constraint65 ))
:extrapreds ((constraint64 ))
:extrapreds ((constraint63 ))
:extrapreds ((constraint62 ))
:extrapreds ((constraint61 ))
:extrapreds ((constraint60 ))
:extrapreds ((constraint59 ))
:extrapreds ((constraint58 ))
:extrapreds ((constraint57 ))
:extrapreds ((constraint56 ))
:extrapreds ((constraint55 ))
:extrapreds ((constraint54 ))
:extrapreds ((constraint53 ))
:extrapreds ((constraint52 ))
:extrapreds ((constraint51 ))
:extrapreds ((constraint50 ))
:extrapreds ((constraint49 ))
:extrapreds ((constraint48 ))
:extrapreds ((constraint47 ))
:extrapreds ((constraint46 ))
:extrapreds ((constraint45 ))
:extrapreds ((constraint44 ))
:extrapreds ((constraint43 ))
:extrapreds ((constraint42 ))
:extrapreds ((constraint41 ))
:extrapreds ((constraint40 ))
:extrapreds ((constraint39 ))
:extrapreds ((constraint38 ))
:extrapreds ((constraint37 ))
:extrapreds ((constraint36 ))
:extrapreds ((constraint35 ))
:extrapreds ((constraint34 ))
:extrapreds ((constraint33 ))
:extrapreds ((constraint32 ))
:extrapreds ((constraint31 ))
:extrapreds ((constraint30 ))
:extrapreds ((constraint29 ))
:extrapreds ((constraint28 ))
:extrapreds ((constraint27 ))
:extrapreds ((constraint26 ))
:extrapreds ((constraint25 ))
:extrapreds ((constraint24 ))
:extrapreds ((constraint23 ))
:extrapreds ((constraint22 ))
:extrapreds ((constraint21 ))
:extrapreds ((constraint20 ))
:extrapreds ((constraint19 ))
:extrapreds ((constraint18 ))
:extrapreds ((constraint17 ))
:extrapreds ((constraint16 ))
:extrapreds ((constraint15 ))
:extrapreds ((constraint14 ))
:extrapreds ((constraint13 ))
:extrapreds ((constraint12 ))
:extrapreds ((constraint11 ))
:extrapreds ((constraint10 ))
:extrapreds ((constraint9 ))
:extrapreds ((constraint8 ))
:extrapreds ((constraint7 ))
:extrapreds ((constraint6 ))
:extrapreds ((constraint5 ))
:extrapreds ((constraint4 ))
:extrapreds ((constraint3 ))
:extrapreds ((constraint2 ))
:extrapreds ((constraint1 ))
:extrapreds ((constraint0 ))
:formula
(flet ($x444 (and constraint0 constraint1 constraint2 constraint3 constraint4 constraint5 constraint6 constraint7 constraint8 constraint9 constraint10 constraint11 constraint12 constraint13 constraint14 constraint15 constraint16 constraint17 constraint18 constraint19 constraint20 constraint21 constraint22 constraint23 constraint24 constraint25 constraint26 constraint27 constraint28 constraint29 constraint30 constraint31 constraint32 constraint33 constraint34 constraint35 constraint36 constraint37 constraint38 constraint39 constraint40 constraint41 constraint42 constraint43 constraint44 constraint45 constraint46 constraint47 constraint48 constraint49 constraint50 constraint51 constraint52 constraint53 constraint54 constraint55 constraint56 constraint57 constraint58 constraint59 constraint60 constraint61 constraint62 constraint63 constraint64 constraint65 constraint66 constraint67 constraint68 constraint69 constraint70 constraint71 constraint72 constraint73 constraint74 constraint75 constraint76 constraint77 constraint78 constraint79 constraint80 constraint81 constraint82 constraint83))
(flet ($x267 (= gtINDEX40 (select gtFIELD__bitsForTID0__gtAGG____anonstruct_D_Work_4 gtINDEX39)))
(flet ($x263 (= gtINDEX38 (select gtFIELD__bitsForTID0__gtAGG____anonstruct_D_Work_4 gtINDEX37)))
(flet ($x259 (= gtINDEX36 (select gtFIELD__bitsForTID0__gtAGG____anonstruct_D_Work_4 gtINDEX35)))
(flet ($x255 (= gtINDEX34 (select gtFIELD__bitsForTID0__gtAGG____anonstruct_D_Work_4 gtINDEX33)))
(flet ($x251 (= gtINDEX32 (select gtFIELD__bitsForTID0__gtAGG____anonstruct_D_Work_4 gtINDEX31)))
(flet ($x247 (= gtINDEX30 (select gtFIELD__bitsForTID0__gtAGG____anonstruct_D_Work_4 gtINDEX29)))
(flet ($x243 (= gtINDEX28 (select gtFIELD__bitsForTID0__gtAGG____anonstruct_D_Work_4 gtINDEX27)))
(flet ($x233 (= gtINDEX20 (select gtFIELD__bitsForTID0__gtAGG____anonstruct_D_Work_4 gtINDEX19)))
(flet ($x229 (= gtINDEX18 (select gtFIELD__bitsForTID0__gtAGG____anonstruct_D_Work_4 gtINDEX17)))
(flet ($x225 (= gtINDEX16 (select gtFIELD__bitsForTID0__gtAGG____anonstruct_D_Work_4 gtINDEX15)))
(flet ($x216 (= gtINDEX9 (select gtFIELD__bitsForTID0__gtAGG____anonstruct_D_Work_4 gtINDEX8)))
(flet ($x210 (= gtINDEX5 (select gtFIELD__bitsForTID0__gtAGG____anonstruct_D_Work_4 gtINDEX4)))
(flet ($x206 (= gtINDEX3 (select gtFIELD__bitsForTID0__gtAGG____anonstruct_D_Work_4 gtINDEX2)))
(flet ($x202 (= gtINDEX1 (select gtFIELD__bitsForTID0__gtAGG____anonstruct_D_Work_4 gtINDEX0)))
(flet ($x196 (= (select gtFIELD__sh_rst__gtAGG____anonstruct_D_Work_4 gtINDEX47) bv1[32]))
(flet ($x192 (= (select gtFIELD__sent__gtAGG____anonstruct_D_Work_4 gtINDEX46) bv3[32]))
(flet ($x188 (= (select gtFIELD__sent__gtAGG____anonstruct_D_Work_4 gtINDEX45) bv2[32]))
(flet ($x184 (= (select gtFIELD__sent__gtAGG____anonstruct_D_Work_4 gtINDEX44) bv1[32]))
(flet ($x180 (= (select gtFIELD__sent__gtAGG____anonstruct_D_Work_4 gtINDEX43) (bvmul bv4294967295[32] bv1[32])))
(flet ($x175 (= (select gtFIELD__sent__gtAGG____anonstruct_D_Work_4 gtINDEX42) bv9[32]))
(flet ($x170 (= (select gtFIELD__sent__gtAGG____anonstruct_D_Work_4 gtINDEX41) bv4[32]))
(let (?x166 (zero_extend[31] (select gtFIELD__is_Eng__gtAGG____anonstruct_bitsForTID0_5 gtINDEX40)))
(let (?x160 (select gtFIELD__is_active_Eng__gtAGG____anonstruct_bitsForTID0_5 gtINDEX38))
(let (?x154 (select gtFIELD__is_active_PURI__gtAGG____anonstruct_bitsForTID0_5 gtINDEX36))
(let (?x148 (select gtFIELD__is_PVRP__gtAGG____anonstruct_bitsForTID0_5 gtINDEX34))
(let (?x143 (select gtFIELD__is_active_PVRP__gtAGG____anonstruct_bitsForTID0_5 gtINDEX32))
(let (?x137 (select gtFIELD__is_active_PPVARP__gtAGG____anonstruct_bitsForTID0_5 gtINDEX30))
(let (?x134 (store gtFIELD__is_PLRI__gtAGG____anonstruct_bitsForTID0_5 gtINDEX28 (extract[1:0] bv2[32])))
(flet ($x316 (iff constraint20 (= gtFIELD__is_PLRI__gtAGG____anonstruct_bitsForTID0_5_1_ ?x134)))
(let (?x123 (bvmul bv4294967295[32] (select gtFIELD__AVId__gtAGG____anonstruct_D_Work_4 gtINDEX26)))
(let (?x119 (bvadd (select gtFIELD__n_t_n__gtAGG____anonstruct_D_Work_4 gtINDEX24) (select gtFIELD__LRId__gtAGG____anonstruct_D_Work_4 gtINDEX25)))
(let (?x114 (select gtFIELD__temporalCounter_i2__gtAGG____anonstruct_D_Work_4 gtINDEX23))
(flet ($x112 (= (select gtFIELD__comm__gtAGG____anonstruct_D_Work_4 gtINDEX22) bv0[32]))
(flet ($x109 (= (select gtFIELD__sent__gtAGG____anonstruct_D_Work_4 gtINDEX21) bv0[32]))
(let (?x104 (select gtFIELD__is_PLRI__gtAGG____anonstruct_bitsForTID0_5 gtINDEX20))
(let (?x99 (select gtFIELD__is_active_PLRI__gtAGG____anonstruct_bitsForTID0_5 gtINDEX18))
(let (?x92 (zero_extend[31] (select gtFIELD__URIex__gtAGG____anonstruct_bitsForTID0_5 gtINDEX16)))
(flet ($x89 (= (select gtFIELD__comm__gtAGG____anonstruct_D_Work_4 gtINDEX14) bv0[32]))
(flet ($x86 (= (select gtFIELD__sent__gtAGG____anonstruct_D_Work_4 gtINDEX13) bv0[32]))
(let (?x81 (bvadd (select gtFIELD__n_t__gtAGG____anonstruct_D_Work_4 gtINDEX11) (select gtFIELD__AVId__gtAGG____anonstruct_D_Work_4 gtINDEX12)))
(let (?x76 (select gtFIELD__temporalCounter_i1__gtAGG____anonstruct_D_Work_4 gtINDEX10))
(let (?x73 (zero_extend[31] (select gtFIELD__URIex__gtAGG____anonstruct_bitsForTID0_5 gtINDEX9)))
(flet ($x70 (= (select gtFIELD__comm__gtAGG____anonstruct_D_Work_4 gtINDEX7) bv0[32]))
(flet ($x67 (= (select gtFIELD__sent__gtAGG____anonstruct_D_Work_4 gtINDEX6) bv0[32]))
(let (?x62 (zero_extend[29] (select gtFIELD__is_PAVI__gtAGG____anonstruct_bitsForTID0_5 gtINDEX5)))
(let (?x56 (zero_extend[29] (select gtFIELD__is_PAVI__gtAGG____anonstruct_bitsForTID0_5 gtINDEX3)))
(let (?x49 (select gtFIELD__is_active_PAVI__gtAGG____anonstruct_bitsForTID0_5 gtINDEX1))
(flet ($x443 (and (iff constraint0 (not (= sfEvent_ bv8[32]))) (iff constraint1 (not (= (zero_extend[31] ?x49) bv0[32]))) (iff constraint2 (not (= ?x56 bv1[32]))) (iff constraint3 (= ?x62 bv2[32])) (iff constraint4 $x67) (iff constraint5 $x70) (iff constraint6 (= ?x73 bv0[32])) (iff constraint7 (not (= ?x76 ?x81))) (iff constraint8 $x86) (iff constraint9 $x89) (iff constraint10 (not (= ?x92 bv1[32]))) (iff constraint11 (not (= sfEvent_ bv5[32]))) (iff constraint12 (not (= (zero_extend[31] ?x99) bv0[32]))) (iff constraint13 (= (zero_extend[30] ?x104) bv1[32])) (iff constraint14 $x109) (iff constraint15 $x112) (iff constraint16 (not (= ?x114 (bvadd ?x119 ?x123)))) (iff constraint17 (not (= sfEvent_ bv4[32]))) (iff constraint18 (not (= sfEvent_ bv5[32]))) (iff constraint19 (= sfEvent_ bv3[32])) $x316 (iff constraint21 (not (not (= (zero_extend[31] ?x137) bv0[32])))) (iff constraint22 (not (= (zero_extend[31] ?x143) bv0[32]))) (iff constraint23 (= (zero_extend[30] ?x148) bv1[32])) (iff constraint24 (not (= sfEvent_ bv0[32]))) (iff constraint25 (not (= sfEvent_ bv4[32]))) (iff constraint26 (not (not (= (zero_extend[31] ?x154) bv0[32])))) (iff constraint27 (not (= (zero_extend[31] ?x160) bv0[32]))) (iff constraint28 (= ?x166 bv1[32])) (iff constraint29 (not $x170)) (iff constraint30 (not $x175)) (iff constraint31 (not $x180)) (iff constraint32 (not $x184)) (iff constraint33 (not $x188)) (iff constraint34 (not $x192)) (iff constraint35 (not $x196)) (iff constraint36 (= gtINDEX0 gtAGG__rtDWork)) (iff constraint37 $x202) (iff constraint38 (= gtINDEX2 gtAGG__rtDWork)) (iff constraint39 $x206) (iff constraint40 (= gtINDEX4 gtAGG__rtDWork)) (iff constraint41 $x210) (iff constraint42 (= gtINDEX6 gtAGG__rtDWork)) (iff constraint43 (= gtINDEX7 gtAGG__rtDWork)) (iff constraint44 (= gtINDEX8 gtAGG__rtDWork)) (iff constraint45 $x216) (iff constraint46 (= gtINDEX10 gtAGG__rtDWork)) (iff constraint47 (= gtINDEX11 gtAGG__rtDWork)) (iff constraint48 (= gtINDEX12 gtAGG__rtDWork)) (iff constraint49 (= gtINDEX13 gtAGG__rtDWork)) (iff constraint50 (= gtINDEX14 gtAGG__rtDWork)) (iff constraint51 (= gtINDEX15 gtAGG__rtDWork)) (iff constraint52 $x225) (iff constraint53 (= gtINDEX17 gtAGG__rtDWork)) (iff constraint54 $x229) (iff constraint55 (= gtINDEX19 gtAGG__rtDWork)) (iff constraint56 $x233) (iff constraint57 (= gtINDEX21 gtAGG__rtDWork)) (iff constraint58 (= gtINDEX22 gtAGG__rtDWork)) (iff constraint59 (= gtINDEX23 gtAGG__rtDWork)) (iff constraint60 (= gtINDEX24 gtAGG__rtDWork)) (iff constraint61 (= gtINDEX25 gtAGG__rtDWork)) (iff constraint62 (= gtINDEX26 gtAGG__rtDWork)) (iff constraint63 (= gtINDEX27 gtAGG__rtDWork)) (iff constraint64 $x243) (iff constraint65 (= gtINDEX29 gtAGG__rtDWork)) (iff constraint66 $x247) (iff constraint67 (= gtINDEX31 gtAGG__rtDWork)) (iff constraint68 $x251) (iff constraint69 (= gtINDEX33 gtAGG__rtDWork)) (iff constraint70 $x255) (iff constraint71 (= gtINDEX35 gtAGG__rtDWork)) (iff constraint72 $x259) (iff constraint73 (= gtINDEX37 gtAGG__rtDWork)) (iff constraint74 $x263) (iff constraint75 (= gtINDEX39 gtAGG__rtDWork)) (iff constraint76 $x267) (iff constraint77 (= gtINDEX41 gtAGG__rtDWork)) (iff constraint78 (= gtINDEX42 gtAGG__rtDWork)) (iff constraint79 (= gtINDEX43 gtAGG__rtDWork)) (iff constraint80 (= gtINDEX44 gtAGG__rtDWork)) (iff constraint81 (= gtINDEX45 gtAGG__rtDWork)) (iff constraint82 (= gtINDEX46 gtAGG__rtDWork)) (iff constraint83 (= gtINDEX47 gtAGG__rtDWork))))
(and $x443 $x444))))))))))))))))))))))))))))))))))))))))))))))))))
)
